c clasp version 2.1.1
c Reading from pb_300_10.cnf
c Solving...
s UNSATISFIABLE

c Models        : 0     
c Time          : 27.305s (Solving: 25.91s 1st Model: 0.00s Unsat: 25.91s)
c CPU Time      : 27.250s
c Choices       : 272767
c Conflicts     : 120519
c Restarts      : 47     (Average: 2564.21 Last: 8477)

c Variables     : 346991 (Eliminated: 108519 Frozen:    0)
c Constraints   : 437799 (Binary: 63.4% Ternary: 35.7% Other:  0.8%)
c Lemmas        : 120518 (Binary:  0.3% Ternary:  1.7% Other: 98.0%)
c   Conflict    : 120518 (Average Length: 39.8) 
c   Loop        : 0      (Average Length: 0.0) 
c   Other       : 0      (Average Length: 0.0)
c   Deleted     : 98620 
